c   #vars: 38   #clauses: 163   #literals: 472
c 
p cnf 38 163
-2 -3 0
-4 -5 0
-6 -7 0
10 11 20 21 0
10 11 24 25 0
-8 -9 0
-10 -11 0
-12 -13 0
2 3 -15 27 0
-14 -15 0
6 7 16 17 0
18 19 35 36 0
-16 -17 0
-18 -19 0
-20 -21 0
-18 24 25 26 0
-22 -23 0
-24 -25 0
-4 -7 -32 -33 0
-28 -29 0
-30 -31 0
-32 -33 0
1 18 19 -35 0
-35 -36 0
4 5 16 17 0
16 17 30 31 0
18 19 -24 26 0
-37 -38 0
-12 -13 32 33 0
-1 -19 0
-1 -23 0
-12 -13 -27 32 33 0
-1 -36 0
-2 -22 0
-3 -23 0
-2 -27 0
12 13 18 19 0
-2 -32 0
-3 -33 0
1 18 19 -22 0
-3 -34 0
-4 -16 0
-5 -17 0
-4 -22 0
-5 -23 0
14 15 -24 34 0
-4 -28 0
-5 -29 0
-8 18 19 26 0
2 3 -24 34 0
-4 -37 0
-5 -38 0
-6 -16 0
-7 -17 0
18 19 -37 -38 0
-6 -24 0
-7 -25 0
-18 -19 37 38 0
-6 -30 0
-7 -31 0
16 17 35 36 0
-6 -32 0
-7 -33 0
20 21 28 29 0
2 3 -14 34 0
22 23 28 29 0
14 15 -21 27 0
22 23 37 38 0
12 13 -27 -32 -33 0
6 7 30 31 0
-8 -14 0
-9 -15 0
-8 -16 0
-9 -17 0
-8 -20 0
-9 -21 0
-2 14 15 34 0
-4 -5 -32 -33 0
-9 -26 0
8 9 20 21 0
-10 -14 0
-11 -15 0
-10 -20 0
-11 -21 0
-10 -24 0
-11 -25 0
-10 -28 0
-11 -29 0
12 13 37 38 0
-10 -30 0
-11 -31 0
16 17 37 38 0
-10 -32 0
-11 -33 0
12 13 24 25 0
-12 -18 0
-13 -19 0
4 5 28 29 0
-8 24 25 26 0
6 7 24 25 0
-12 -24 0
-13 -25 0
1 -18 22 23 0
-12 -30 0
-13 -31 0
-6 -7 -32 -33 0
-12 -37 0
-13 -38 0
2 3 -21 27 0
4 5 22 23 0
-15 20 21 27 0
8 9 -24 26 0
-3 20 21 27 0
-3 14 15 27 0
1 22 23 -35 0
2 3 22 23 0
-14 -27 0
-1 12 13 -27 -32 -33 0
18 19 32 33 0
1 -22 35 36 0
-15 -34 0
-2 24 25 34 0
-14 24 25 34 0
4 5 37 38 0
-16 -30 0
-17 -31 0
10 11 14 15 0
-16 -35 0
-17 -36 0
10 11 30 31 0
-16 -37 0
-17 -38 0
8 9 14 15 0
10 11 32 33 0
12 13 -32 -33 0
-4 -5 6 7 0
-19 -26 0
-18 -32 0
-19 -33 0
8 9 16 17 0
-18 -35 0
-19 -36 0
-20 -27 0
-1 -12 -13 -27 32 33 0
-20 -28 0
-21 -29 0
6 7 32 33 0
8 9 -18 26 0
12 13 30 31 0
-22 -28 0
-23 -29 0
2 3 32 33 0
-22 -35 0
-23 -36 0
10 11 28 29 0
-22 -37 0
-23 -38 0
-5 -6 -32 -33 0
4 5 -6 -7 0
-25 -26 0
22 23 35 36 0
1 -18 35 36 0
-25 -34 0
